nbObj= 50;
Capacity= 1334;
Profit =[ 96,63,49,97,23,44,97,47,9,58,16,38,70,64,60,19,14,32,79,54,11,38,92,41,55,56,88,24,83,66,36,1,68,15,12,3,65,33,23,59,22,100,10,17,65,86,70,53,69,39];
Weight =[ 66,26,47,89,32,33,95,30,20,52,91,2,39,10,97,7,33,14,28,53,97,59,84,52,98,71,93,57,39,42,36,1,32,98,68,74,40,8,25,78,66,9,75,92,35,52,86,90,67,80];
